benchmarks_vrp/CMT5/fixed_c_size/CMT5_12.vrp
NAME: CMT5_12
TYPE: CVRP
COMMENT: 1291.29 - Cluster Nr.12
DIMENSION: 13
CAPACITY: 200
EDGE_WEIGHT_TYPE: EUC_2D
NODE_COORD_TYPE: TWOD_COORDS
NODE_COORD_SECTION: 
9 8 56
12 16 57
6 2 60
11 8 52
3 5 64
4 9 56
5 17 63
7 17 64
2 15 60
8 6 68
10 35 35
1 2 48
13 13 52
DEPOT_SECTION: 
10
-1
DEMAND_SECTION: 
7 14
2 17
1 1
12 16
8 30
10 0
6 5
4 13
5 19
3 11
13 36
11 10
9 27
EOF
