benchmarks_vrp/CMT5/fixed_c_size/CMT5_12.tour
NAME: CMT5_12 solution
TYPE: TOUR
TOUR_SECTION:
10 12 2 7 5 8 3 6 1 11 9 4 13 -1
-1
EOF